# 1 amount of Vehicles
param nv :=
6 ;

# 2 amount of Orders
param no :=
10 ;

# 3 amount of locations
param nl :=
7 ;

# 4 amount of factories
param nf :=
3 ;

# 5 factory sets
set N_f_2[1] :=  4 7 ;
set N_f_2[2] :=  5 ;
set N_f_2[3] :=  6 ;

# 6 factory stop capacities
param H :=
1 2
2 1
3 1 ;

# 7 pickup locations for each order
param L_pd :=
1 2
2 1
3 3
4 2
5 3
6 2
7 2
8 2
9 3
10 3 ;

# 8 delivery locations for each order
param L_dd :=
1 5
2 6
3 7
4 4
5 7
6 6
7 6
8 7
9 6
10 4 ;

# 9 location sets
set L_2[1] :=  2 ;
set L_2[2] :=  1 4 6 7 8 ;
set L_2[3] :=  3 5 9 10 ;
set L_2[4] :=  4 10 ;
set L_2[5] :=  1 ;
set L_2[6] :=  2 6 7 9 ;
set L_2[7] :=  3 5 8 ;

# 10 order weights
param Q_kg_2 :=
1 1548.7911576658053
2 1626.068860102222
3 467.1302486371766
4 151.9077694882887
5 14530.524687827212
6 874.7840715445344
7 388.02527429381644
8 1993.6680405742343
9 875.6789364216269
10 26870.5546062856 ;

# 11 order volumes
param Q_vol_2 :=
1 16.82867360161432
2 27.808250177876385
3 4.593969665623378
4 0.7655921569442299
5 44.237496919294074
6 8.542333521459119
7 2.009523429715632
8 4.665857778886918
9 5.1941746507413535
10 99.96828092918473 ;

# 12 Locations vehicle can visit
set N_v_2[1] := 1 2 3 4 5 6 7 ;
set N_v_2[2] := 1 2 3 4 5 6 7 ;
set N_v_2[3] := 1 2 3 4 5 6 7 ;
set N_v_2[4] := 1 2 3 4 5 6 7 ;
set N_v_2[5] := 1 2 3 4 5 6 7 ;
set N_v_2[6] := 1 2 3 4 5 6 7 ;

# 13 Orders vehicles can pick up
set N_vp_2[1] := 1 3 4 6 7 8 9 ;
set N_vp_2[2] := 1 3 4 6 7 8 9 ;
set N_vp_2[3] := 1 2 3 4 5 6 7 8 9 ;
set N_vp_2[4] := 1 2 3 4 5 6 7 8 9 ;
set N_vp_2[5] := 1 2 3 4 5 6 7 8 9 10 ;
set N_vp_2[6] := 1 2 3 4 5 6 7 8 9 10 ;

# 14 vehicle weight capacity
param K_kg :=
1 12000.0
2 12000.0
3 18000.0
4 18000.0
5 24000.0
6 24000.0 ;

# 15 vehicle volume capacity
param K_vol :=
1 55.0
2 55.0
3 71.0
4 71.0
5 102.0
6 102.0 ;

# 16 amount of distance intervals
param na :=
1 2
2 2
3 2
4 2
5 2
6 2 ;

# 17 amount of weight intervals
param nb :=
1 2
2 2
3 3
4 3
5 2
6 2 ;

# 18 Distance intervals
param B_2 :=
1 1 1500.0
1 2 9999999.0
2 1 1500.0
2 2 9999999.0
3 1 1500.0
3 2 9999999.0
4 1 1500.0
4 2 9999999.0
5 1 1500.0
5 2 9999999.0
6 1 1500.0
6 2 9999999.0 ;

# 19 Weight intervals
param Z_2 :=
1 1 1500.0
1 2 24000.0
1 3 . 
2 1 1500.0
2 2 24000.0
2 3 . 
3 1 700.0
3 2 3000.0
3 3 24000.0
4 1 700.0
4 2 3000.0
4 3 24000.0
5 1 1500.0
5 2 24000.0
5 3 . 
6 1 1500.0
6 2 24000.0
6 3 . ;

# 20 cost per kilometer
param C_km :=
1 1 1 0.11574494469165798
1 1 2 0.3723393221028571
1 1 3 . 
1 2 1 0.07716329646110535
1 2 2 0.2482262147352381
1 2 3 . 
2 1 1 0.11574494469165798
2 1 2 0.3723393221028571
2 1 3 . 
2 2 1 0.07716329646110535
2 2 2 0.2482262147352381
2 2 3 . 
3 1 1 0.09622650146484377
3 1 2 0.18318747431342491
3 1 3 0.43439587578666683
3 2 1 0.060485229492187494
3 2 2 0.11514641242558135
3 2 3 0.2730488362087619
4 1 1 0.09622650146484377
4 1 2 0.18318747431342491
4 1 3 0.43439587578666683
4 2 1 0.060485229492187494
4 2 2 0.11514641242558135
4 2 3 0.2730488362087619
5 1 1 0.1543265929222107
5 1 2 0.4964524294704762
5 1 3 . 
5 2 1 0.09645412057638168
5 2 2 0.3102827684190475
5 2 3 . 
6 1 1 0.1543265929222107
6 1 2 0.4964524294704762
6 1 3 . 
6 2 1 0.09645412057638168
6 2 2 0.3102827684190475
6 2 3 . ;

# 21 cost per kilo
param C_kg :=
1 1 1 0.004564315080642704
1 1 2 8.114541859150757E-4
1 1 3 . 
1 2 1 0.0018257260322570804
1 2 2 3.245816743660299E-4
1 2 3 . 
2 1 1 0.004564315080642704
2 1 2 8.114541859150757E-4
2 1 3 . 
2 2 1 0.0018257260322570804
2 2 2 3.245816743660299E-4
2 2 3 . 
3 1 1 0.0070495605468750035
3 1 2 0.0030595174524933127
3 1 3 8.114541859150757E-4
3 2 1 0.0028198242187500006
3 2 2 0.0012238069809973242
3 2 3 3.245816743660299E-4
4 1 1 0.0070495605468750035
4 1 2 0.0030595174524933127
4 1 3 8.114541859150757E-4
4 2 1 0.0028198242187500006
4 2 2 0.0012238069809973242
4 2 3 3.245816743660299E-4
5 1 1 0.004564315080642704
5 1 2 8.114541859150757E-4
5 1 3 . 
5 2 1 0.0018257260322570804
5 2 2 3.245816743660299E-4
5 2 3 . 
6 1 1 0.004564315080642704
6 1 2 8.114541859150757E-4
6 1 3 . 
6 2 1 0.0018257260322570804
6 2 2 3.245816743660299E-4
6 2 3 . ;

# 22 fixed costs
param C_fix :=
1 1 1 136.6875
1 1 2 764.94375
1 1 3 . 
1 2 1 1037.970703125
1 2 2 5808.7916015625
1 2 3 . 
2 1 1 136.6875
2 1 2 764.94375
2 1 3 . 
2 2 1 1037.970703125
2 2 2 5808.7916015625
2 2 3 . 
3 1 1 100.68095232000002
3 1 2 236.89635840000005
3 1 3 894.8759938560002
3 2 1 930.1870876292295
3 2 2 2188.6755003040694
3 2 3 8267.721702398621
4 1 1 100.68095232000002
4 1 2 236.89635840000005
4 1 3 894.8759938560002
4 2 1 930.1870876292295
4 2 2 2188.6755003040694
4 2 3 8267.721702398621
5 1 1 195.31660031999994
5 1 2 1093.0495669759996
5 1 3 . 
5 2 1 2317.1726648638028
5 2 2 12967.584802256317
5 2 3 . 
6 1 1 195.31660031999994
6 1 2 1093.0495669759996
6 1 3 . 
6 2 1 2317.1726648638028
6 2 2 12967.584802256317
6 2 3 . ;

# 23 stopping costs
param C_stop_2 :=
1 1 22.0
1 2 28.0
1 3 20.0
1 4 26.0
1 5 29.0
1 6 21.0
1 7 23.0
2 1 22.0
2 2 28.0
2 3 20.0
2 4 26.0
2 5 29.0
2 6 21.0
2 7 23.0
3 1 33.0
3 2 42.0
3 3 30.0
3 4 39.0
3 5 43.5
3 6 31.5
3 7 34.5
4 1 33.0
4 2 42.0
4 3 30.0
4 4 39.0
4 5 43.5
4 6 31.5
4 7 34.5
5 1 44.0
5 2 56.0
5 3 40.0
5 4 52.0
5 5 58.0
5 6 42.0
5 7 46.0
6 1 44.0
6 2 56.0
6 3 40.0
6 4 52.0
6 5 58.0
6 6 42.0
6 7 46.0 ;

# 24 cost of no transport
param C_2 :=
1 64639.42981739689
2 70584.5354514989
3 63178.91542428307
4 43298.74370722222
5 243456.38706985413
6 60610.28787299123
7 49209.88980874057
8 65485.68449930129
9 44536.37378501376
10 422729.112925358 ;

# 25 timewindow amounts at location
param pi_2 :=
1 4
2 4
3 4
4 4
5 3
6 3
7 4 ;

# 26 timewindow lower bounds
param T_l_2 :=
1 1 120.0
1 2 1560.0
1 3 3000.0
1 4 4440.0
2 1 60.0
2 2 360.0
2 3 1500.0
2 4 1860.0
3 1 60.0
3 2 360.0
3 3 1500.0
3 4 1800.0
4 1 120.0
4 2 420.0
4 3 1560.0
4 4 1860.0
5 1 60.0
5 2 360.0
5 3 1500.0
5 4 . 
6 1 0.0
6 2 1440.0
6 3 2880.0
6 4 . 
7 1 0.0
7 2 1440.0
7 3 2880.0
7 4 4320.0 ;

# 27 timewindow upper bounds
param T_u_2 :=
1 1 360.0
1 2 1740.0
1 3 3180.0
1 4 4620.0
2 1 300.0
2 2 660.0
2 3 1740.0
2 4 2160.0
3 1 240.0
3 2 600.0
3 3 1680.0
3 4 2040.0
4 1 300.0
4 2 720.0
4 3 1740.0
4 4 2160.0
5 1 240.0
5 2 540.0
5 3 1680.0
5 4 . 
6 1 180.0
6 2 1740.0
6 3 3180.0
6 4 . 
7 1 180.0
7 2 1620.0
7 3 3060.0
7 4 4500.0 ;

# 28 Travel time
param T_2 :=
1 1 1 . 
1 1 2 364.78215657824865
1 1 3 293.87320481091876
1 1 4 759.127608143498
1 1 5 239.2162001489523
1 1 6 129.59327787667152
1 1 7 768.4350270223988
1 2 1 364.78215657824865
1 2 2 . 
1 2 3 644.6207994330115
1 2 4 356.23456425658503
1 2 5 221.3807439854087
1 2 6 389.66856060144613
1 2 7 395.0524385778672
1 3 1 293.87320481091876
1 3 2 644.6207994330115
1 3 3 . 
1 3 4 758.5880988886219
1 3 5 385.94850211944697
1 3 6 227.4234961676023
1 3 7 702.2273878714655
1 4 1 759.127608143498
1 4 2 356.23456425658503
1 4 3 758.5880988886219
1 4 4 . 
1 4 5 504.9022184235739
1 4 6 601.7704351023815
1 4 7 2.692582403567252
1 5 1 239.2162001489523
1 5 2 221.3807439854087
1 5 3 385.94850211944697
1 5 4 504.9022184235739
1 5 5 . 
1 5 6 200.01832372837953
1 5 7 495.21455551049326
1 6 1 129.59327787667152
1 6 2 389.66856060144613
1 6 3 227.4234961676023
1 6 4 601.7704351023815
1 6 5 200.01832372837953
1 6 6 . 
1 6 7 656.1238152338838
1 7 1 768.4350270223988
1 7 2 395.0524385778672
1 7 3 702.2273878714655
1 7 4 2.692582403567252
1 7 5 495.21455551049326
1 7 6 656.1238152338838
1 7 7 . 
2 1 1 . 
2 1 2 364.78215657824865
2 1 3 293.87320481091876
2 1 4 759.127608143498
2 1 5 239.2162001489523
2 1 6 129.59327787667152
2 1 7 768.4350270223988
2 2 1 364.78215657824865
2 2 2 . 
2 2 3 644.6207994330115
2 2 4 356.23456425658503
2 2 5 221.3807439854087
2 2 6 389.66856060144613
2 2 7 395.0524385778672
2 3 1 293.87320481091876
2 3 2 644.6207994330115
2 3 3 . 
2 3 4 758.5880988886219
2 3 5 385.94850211944697
2 3 6 227.4234961676023
2 3 7 702.2273878714655
2 4 1 759.127608143498
2 4 2 356.23456425658503
2 4 3 758.5880988886219
2 4 4 . 
2 4 5 504.9022184235739
2 4 6 601.7704351023815
2 4 7 2.692582403567252
2 5 1 239.2162001489523
2 5 2 221.3807439854087
2 5 3 385.94850211944697
2 5 4 504.9022184235739
2 5 5 . 
2 5 6 200.01832372837953
2 5 7 495.21455551049326
2 6 1 129.59327787667152
2 6 2 389.66856060144613
2 6 3 227.4234961676023
2 6 4 601.7704351023815
2 6 5 200.01832372837953
2 6 6 . 
2 6 7 656.1238152338838
2 7 1 768.4350270223988
2 7 2 395.0524385778672
2 7 3 702.2273878714655
2 7 4 2.692582403567252
2 7 5 495.21455551049326
2 7 6 656.1238152338838
2 7 7 . 
3 1 1 . 
3 1 2 373.9017104927048
3 1 3 301.2200349311917
3 1 4 778.1057983470854
3 1 5 245.19660515267609
3 1 6 132.8331098235883
3 1 7 787.6459026979587
3 2 1 373.9017104927048
3 2 2 . 
3 2 3 660.7363194188367
3 2 4 365.1404283629996
3 2 5 226.9152625850439
3 2 6 399.41027461648224
3 2 7 404.9287495423138
3 3 1 301.2200349311917
3 3 2 660.7363194188367
3 3 3 . 
3 3 4 777.5528013608373
3 3 5 395.5972146724331
3 3 6 233.10908357179235
3 3 7 719.783072568252
3 4 1 778.1057983470854
3 4 2 365.1404283629996
3 4 3 777.5528013608373
3 4 4 . 
3 4 5 517.5247738841632
3 4 6 616.814695979941
3 4 7 2.7598969636564328
3 5 1 245.19660515267609
3 5 2 226.9152625850439
3 5 3 395.5972146724331
3 5 4 517.5247738841632
3 5 5 . 
3 5 6 205.018781821589
3 5 7 507.59491939825557
3 6 1 132.8331098235883
3 6 2 399.41027461648224
3 6 3 233.10908357179235
3 6 4 616.814695979941
3 6 5 205.018781821589
3 6 6 . 
3 6 7 672.5269106147308
3 7 1 787.6459026979587
3 7 2 404.9287495423138
3 7 3 719.783072568252
3 7 4 2.7598969636564328
3 7 5 507.59491939825557
3 7 6 672.5269106147308
3 7 7 . 
4 1 1 . 
4 1 2 373.9017104927048
4 1 3 301.2200349311917
4 1 4 778.1057983470854
4 1 5 245.19660515267609
4 1 6 132.8331098235883
4 1 7 787.6459026979587
4 2 1 373.9017104927048
4 2 2 . 
4 2 3 660.7363194188367
4 2 4 365.1404283629996
4 2 5 226.9152625850439
4 2 6 399.41027461648224
4 2 7 404.9287495423138
4 3 1 301.2200349311917
4 3 2 660.7363194188367
4 3 3 . 
4 3 4 777.5528013608373
4 3 5 395.5972146724331
4 3 6 233.10908357179235
4 3 7 719.783072568252
4 4 1 778.1057983470854
4 4 2 365.1404283629996
4 4 3 777.5528013608373
4 4 4 . 
4 4 5 517.5247738841632
4 4 6 616.814695979941
4 4 7 2.7598969636564328
4 5 1 245.19660515267609
4 5 2 226.9152625850439
4 5 3 395.5972146724331
4 5 4 517.5247738841632
4 5 5 . 
4 5 6 205.018781821589
4 5 7 507.59491939825557
4 6 1 132.8331098235883
4 6 2 399.41027461648224
4 6 3 233.10908357179235
4 6 4 616.814695979941
4 6 5 205.018781821589
4 6 6 . 
4 6 7 672.5269106147308
4 7 1 787.6459026979587
4 7 2 404.9287495423138
4 7 3 719.783072568252
4 7 4 2.7598969636564328
4 7 5 507.59491939825557
4 7 6 672.5269106147308
4 7 7 . 
5 1 1 . 
5 1 2 383.0212644071611
5 1 3 308.56686505146473
5 1 4 797.083988550673
5 1 5 251.17701015639994
5 1 6 136.0729417705051
5 1 7 806.8567783735188
5 2 1 383.0212644071611
5 2 2 . 
5 2 3 676.8518394046621
5 2 4 374.0462924694143
5 2 5 232.44978118467915
5 2 6 409.15198863151846
5 2 7 414.8050605067606
5 3 1 308.56686505146473
5 3 2 676.8518394046621
5 3 3 . 
5 3 4 796.517503833053
5 3 5 405.24592722541934
5 3 6 238.79467097598243
5 3 7 737.3387572650388
5 4 1 797.083988550673
5 4 2 374.0462924694143
5 4 3 796.517503833053
5 4 4 . 
5 4 5 530.1473293447526
5 4 6 631.8589568575006
5 4 7 2.8272115237456146
5 5 1 251.17701015639994
5 5 2 232.44978118467915
5 5 3 405.24592722541934
5 5 4 530.1473293447526
5 5 5 . 
5 5 6 210.0192399147985
5 5 7 519.9752832860179
5 6 1 136.0729417705051
5 6 2 409.15198863151846
5 6 3 238.79467097598243
5 6 4 631.8589568575006
5 6 5 210.0192399147985
5 6 6 . 
5 6 7 688.930005995578
5 7 1 806.8567783735188
5 7 2 414.8050605067606
5 7 3 737.3387572650388
5 7 4 2.8272115237456146
5 7 5 519.9752832860179
5 7 6 688.930005995578
5 7 7 . 
6 1 1 . 
6 1 2 383.0212644071611
6 1 3 308.56686505146473
6 1 4 797.083988550673
6 1 5 251.17701015639994
6 1 6 136.0729417705051
6 1 7 806.8567783735188
6 2 1 383.0212644071611
6 2 2 . 
6 2 3 676.8518394046621
6 2 4 374.0462924694143
6 2 5 232.44978118467915
6 2 6 409.15198863151846
6 2 7 414.8050605067606
6 3 1 308.56686505146473
6 3 2 676.8518394046621
6 3 3 . 
6 3 4 796.517503833053
6 3 5 405.24592722541934
6 3 6 238.79467097598243
6 3 7 737.3387572650388
6 4 1 797.083988550673
6 4 2 374.0462924694143
6 4 3 796.517503833053
6 4 4 . 
6 4 5 530.1473293447526
6 4 6 631.8589568575006
6 4 7 2.8272115237456146
6 5 1 251.17701015639994
6 5 2 232.44978118467915
6 5 3 405.24592722541934
6 5 4 530.1473293447526
6 5 5 . 
6 5 6 210.0192399147985
6 5 7 519.9752832860179
6 6 1 136.0729417705051
6 6 2 409.15198863151846
6 6 3 238.79467097598243
6 6 4 631.8589568575006
6 6 5 210.0192399147985
6 6 6 . 
6 6 7 688.930005995578
6 7 1 806.8567783735188
6 7 2 414.8050605067606
6 7 3 737.3387572650388
6 7 4 2.8272115237456146
6 7 5 519.9752832860179
6 7 6 688.930005995578
6 7 7 . ;

# 29 Travel distance
param D_2 :=
1 1 . 
1 2 705.5643131564974
1 3 565.7464096218375
1 4 1144.255216286996
1 5 386.4324002979046
1 6 217.18655575334307
1 7 1138.8700540447976
2 1 705.5643131564974
2 2 . 
2 3 1045.241598866023
2 4 700.4691285131701
2 5 410.7614879708174
2 6 777.3371212028923
2 7 696.1048771557344
3 1 565.7464096218375
3 2 1045.241598866023
3 3 . 
3 4 1135.1761977772437
3 5 635.897004238894
3 6 352.8469923352047
3 7 1130.454775742931
4 1 1144.255216286996
4 2 700.4691285131701
4 3 1135.1761977772437
4 4 . 
4 5 761.8044368471478
4 6 1073.540870204763
4 7 5.385164807134504
5 1 386.4324002979046
5 2 410.7614879708174
5 3 635.897004238894
5 4 761.8044368471478
5 5 . 
5 6 382.03664745675906
5 7 756.4291110209865
6 1 217.18655575334307
6 2 777.3371212028923
6 3 352.8469923352047
6 4 1073.540870204763
6 5 382.03664745675906
6 6 . 
6 7 1068.2476304677675
7 1 1138.8700540447976
7 2 696.1048771557344
7 3 1130.454775742931
7 4 5.385164807134504
7 5 756.4291110209865
7 6 1068.2476304677675
7 7 . ;

